(declare-fun v5 () (_ BitVec 1))
(declare-fun a75 () (Array (_ BitVec 1) (_ BitVec 2)))
(assert
(let (($e26 (_ bv0 2)))
(let (($e215 (store a75 (not false) $e26 )))
(let (($e217 (select $e215 (not   v5 ))))
             (   extract      $e217)
                                                                                                                                                                                                                                                                                                                                                                                                                                                                                                                                 ) )                                                                                                                                                                            )                         )
